55 725 5
0 1 1
0 2 1
0 10 1
0 11 1
0 12 1
0 14 1
0 21 1
0 23 1
0 28 1
0 29 1
0 31 1
0 33 1
0 34 1
0 38 1
0 39 1
0 40 1
0 42 1
0 44 1
0 45 1
0 49 1
0 50 1
0 54 1
1 3 1
1 5 1
1 7 1
1 9 1
1 12 1
1 13 1
1 16 1
1 17 1
1 20 1
1 23 1
1 27 1
1 28 1
1 29 1
1 30 1
1 33 1
1 34 1
1 35 1
1 37 1
1 38 1
1 40 1
1 41 1
1 47 1
1 51 1
2 9 1
2 11 1
2 14 1
2 16 1
2 20 1
2 21 1
2 23 1
2 24 1
2 26 1
2 28 1
2 29 1
2 31 1
2 32 1
2 34 1
2 35 1
2 36 1
2 39 1
2 40 1
2 41 1
2 43 1
2 47 1
2 50 1
2 51 1
2 53 1
3 7 1
3 11 1
3 15 1
3 16 1
3 22 1
3 23 1
3 24 1
3 28 1
3 29 1
3 30 1
3 32 1
3 33 1
3 34 1
3 36 1
3 37 1
3 38 1
3 41 1
3 42 1
3 50 1
3 52 1
3 53 1
4 5 1
4 7 1
4 8 1
4 9 1
4 15 1
4 16 1
4 18 1
4 20 1
4 22 1
4 24 1
4 27 1
4 28 1
4 29 1
4 30 1
4 31 1
4 36 1
4 37 1
4 41 1
4 43 1
4 46 1
4 53 1
4 54 1
5 8 1
5 10 1
5 11 1
5 12 1
5 14 1
5 15 1
5 17 1
5 19 1
5 20 1
5 24 1
5 25 1
5 27 1
5 29 1
5 33 1
5 37 1
5 38 1
5 39 1
5 40 1
5 41 1
5 43 1
5 44 1
5 47 1
5 50 1
6 8 1
6 10 1
6 11 1
6 12 1
6 13 1
6 14 1
6 15 1
6 19 1
6 20 1
6 23 1
6 24 1
6 25 1
6 29 1
6 31 1
6 32 1
6 33 1
6 34 1
6 36 1
6 37 1
6 41 1
6 50 1
6 51 1
6 54 1
7 8 1
7 9 1
7 14 1
7 17 1
7 18 1
7 22 1
7 23 1
7 24 1
7 25 1
7 27 1
7 28 1
7 32 1
7 35 1
7 39 1
7 40 1
7 42 1
7 44 1
7 49 1
7 52 1
8 9 1
8 11 1
8 13 1
8 14 1
8 17 1
8 20 1
8 21 1
8 22 1
8 24 1
8 28 1
8 30 1
8 31 1
8 37 1
8 43 1
8 44 1
8 45 1
8 47 1
8 49 1
8 51 1
8 52 1
8 53 1
9 12 1
9 13 1
9 14 1
9 15 1
9 17 1
9 18 1
9 19 1
9 20 1
9 22 1
9 24 1
9 26 1
9 29 1
9 30 1
9 33 1
9 38 1
9 39 1
9 42 1
9 48 1
9 52 1
9 54 1
10 11 1
10 13 1
10 16 1
10 17 1
10 18 1
10 21 1
10 26 1
10 27 1
10 29 1
10 32 1
10 34 1
10 35 1
10 36 1
10 37 1
10 39 1
10 40 1
10 41 1
10 44 1
10 45 1
10 46 1
10 47 1
10 48 1
10 49 1
10 52 1
11 13 1
11 14 1
11 16 1
11 17 1
11 18 1
11 19 1
11 20 1
11 22 1
11 23 1
11 24 1
11 25 1
11 28 1
11 29 1
11 32 1
11 36 1
11 38 1
11 39 1
11 41 1
11 47 1
11 48 1
11 49 1
11 51 1
11 52 1
11 53 1
11 54 1
12 15 1
12 16 1
12 18 1
12 19 1
12 20 1
12 21 1
12 24 1
12 27 1
12 28 1
12 31 1
12 32 1
12 34 1
12 38 1
12 40 1
12 41 1
12 44 1
12 47 1
12 51 1
12 52 1
12 53 1
13 15 1
13 18 1
13 22 1
13 24 1
13 27 1
13 29 1
13 30 1
13 31 1
13 33 1
13 35 1
13 37 1
13 38 1
13 41 1
13 42 1
13 43 1
13 46 1
13 47 1
13 48 1
13 51 1
14 20 1
14 21 1
14 22 1
14 23 1
14 24 1
14 25 1
14 29 1
14 30 1
14 31 1
14 33 1
14 34 1
14 35 1
14 36 1
14 38 1
14 39 1
14 42 1
14 44 1
14 45 1
14 46 1
14 48 1
14 49 1
14 51 1
14 52 1
15 17 1
15 19 1
15 21 1
15 24 1
15 25 1
15 26 1
15 27 1
15 28 1
15 30 1
15 31 1
15 38 1
15 39 1
15 44 1
15 45 1
15 46 1
15 48 1
15 52 1
15 54 1
16 17 1
16 20 1
16 22 1
16 23 1
16 25 1
16 26 1
16 27 1
16 28 1
16 32 1
16 36 1
16 37 1
16 38 1
16 39 1
16 40 1
16 41 1
16 43 1
16 44 1
16 46 1
16 49 1
16 51 1
16 52 1
17 20 1
17 21 1
17 23 1
17 27 1
17 28 1
17 29 1
17 30 1
17 32 1
17 33 1
17 35 1
17 37 1
17 39 1
17 40 1
17 41 1
17 42 1
17 47 1
17 48 1
17 52 1
18 20 1
18 21 1
18 22 1
18 23 1
18 25 1
18 28 1
18 30 1
18 31 1
18 35 1
18 36 1
18 39 1
18 44 1
18 45 1
18 47 1
18 48 1
18 49 1
18 50 1
18 54 1
19 20 1
19 23 1
19 28 1
19 29 1
19 31 1
19 32 1
19 33 1
19 35 1
19 39 1
19 42 1
19 43 1
19 44 1
19 46 1
19 47 1
19 49 1
19 51 1
20 23 1
20 25 1
20 27 1
20 28 1
20 32 1
20 33 1
20 34 1
20 37 1
20 41 1
20 42 1
20 45 1
20 47 1
20 49 1
20 50 1
20 52 1
20 53 1
21 25 1
21 32 1
21 33 1
21 35 1
21 37 1
21 40 1
21 41 1
21 42 1
21 43 1
21 44 1
21 45 1
21 47 1
21 50 1
21 53 1
21 54 1
22 23 1
22 24 1
22 26 1
22 28 1
22 31 1
22 32 1
22 33 1
22 35 1
22 37 1
22 40 1
22 41 1
22 42 1
22 44 1
22 45 1
22 46 1
22 48 1
22 49 1
22 51 1
22 53 1
22 54 1
23 24 1
23 26 1
23 28 1
23 29 1
23 33 1
23 35 1
23 36 1
23 40 1
23 42 1
23 44 1
23 45 1
23 48 1
23 53 1
24 28 1
24 30 1
24 33 1
24 37 1
24 40 1
24 41 1
24 44 1
24 45 1
24 49 1
24 50 1
24 54 1
25 27 1
25 29 1
25 30 1
25 31 1
25 33 1
25 34 1
25 37 1
25 38 1
25 39 1
25 40 1
25 42 1
25 45 1
25 47 1
25 50 1
25 51 1
25 54 1
26 28 1
26 30 1
26 34 1
26 35 1
26 37 1
26 39 1
26 41 1
26 43 1
26 48 1
26 54 1
27 29 1
27 30 1
27 32 1
27 34 1
27 35 1
27 36 1
27 39 1
27 42 1
27 43 1
27 48 1
27 49 1
27 50 1
27 51 1
27 53 1
27 54 1
28 30 1
28 34 1
28 35 1
28 37 1
28 38 1
28 39 1
28 40 1
28 42 1
28 43 1
28 44 1
28 45 1
28 46 1
28 47 1
28 50 1
28 51 1
28 54 1
29 32 1
29 34 1
29 35 1
29 37 1
29 39 1
29 40 1
29 43 1
29 45 1
29 48 1
29 53 1
30 32 1
30 33 1
30 38 1
30 42 1
30 47 1
30 50 1
30 52 1
30 53 1
31 32 1
31 34 1
31 37 1
31 38 1
31 40 1
31 43 1
31 44 1
31 46 1
31 47 1
31 48 1
31 51 1
31 52 1
32 36 1
32 38 1
32 39 1
32 40 1
32 42 1
32 45 1
32 47 1
32 49 1
32 50 1
32 51 1
32 52 1
32 53 1
33 34 1
33 36 1
33 37 1
33 38 1
33 45 1
33 46 1
33 47 1
33 48 1
33 49 1
33 52 1
34 36 1
34 37 1
34 39 1
34 40 1
34 41 1
34 43 1
34 44 1
34 46 1
34 48 1
34 49 1
34 50 1
35 36 1
35 37 1
35 39 1
35 40 1
35 41 1
35 42 1
35 45 1
35 46 1
35 47 1
36 37 1
36 38 1
36 39 1
36 41 1
36 42 1
36 43 1
36 45 1
36 47 1
36 49 1
36 50 1
36 51 1
36 54 1
37 40 1
37 41 1
37 43 1
37 44 1
37 45 1
37 47 1
37 48 1
37 49 1
37 50 1
37 52 1
37 53 1
37 54 1
38 39 1
38 46 1
38 49 1
38 51 1
38 52 1
39 42 1
39 45 1
39 46 1
39 47 1
39 48 1
39 49 1
39 50 1
39 51 1
40 41 1
40 42 1
40 43 1
40 44 1
40 46 1
40 47 1
40 50 1
40 54 1
41 42 1
41 43 1
41 44 1
41 46 1
41 48 1
41 49 1
41 52 1
41 54 1
42 43 1
42 45 1
42 46 1
42 49 1
42 51 1
42 54 1
43 44 1
43 45 1
43 46 1
43 48 1
43 51 1
43 52 1
43 53 1
44 45 1
44 46 1
44 49 1
44 50 1
44 53 1
44 54 1
45 46 1
45 48 1
45 50 1
45 51 1
45 52 1
45 53 1
46 47 1
46 49 1
46 50 1
46 53 1
46 54 1
47 48 1
47 49 1
47 50 1
47 51 1
47 53 1
48 50 1
48 51 1
48 52 1
48 53 1
49 51 1
49 53 1
49 54 1
50 51 1
50 52 1
50 53 1
51 54 1
52 54 1
53 54 1
9 19 25 38 45